Tried aggregator 2 times.
MIQCP Presolve eliminated 20646 rows and 2385 columns.
MIQCP Presolve modified 33 coefficients.
Aggregator did 1 substitutions.
Reduced MIQCP has 49301 rows, 48442 columns, and 162613 nonzeros.
Reduced MIQCP has 528 binaries, 81 generals, 0 SOSs, and 0 indicators.
Reduced MIQCP has 9403 quadratic constraints.
Presolve time = 2.92 sec. (194.51 ticks)
Probing fixed 0 vars, tightened 32649 bounds.
Probing changed sense of 8 constraints.
Probing time = 1.39 sec. (186.32 ticks)
Cover probing fixed 0 vars, tightened 2397 bounds.
Clique table members: 6295.
MIP emphasis: balance optimality and feasibility.
MIP search method: dynamic search.
Parallel mode: deterministic, using up to 16 threads.
Root relaxation solution time = 34.83 sec. (23204.77 ticks)

        Nodes                                         Cuts/
   Node  Left     Objective  IInf  Best Integer    Best Bound    ItCnt     Gap

      0     0        4.9000     0                      0.0000    44319         
      0     0        4.9000   286                      4.9000    44319         
      0     0        4.9000   366                   Cuts: 282    46739         
      0     0        4.9000   347                    Cuts: 15    48188         
      0     0        4.9000   306                    Cuts: 72    48702         
      0     0        4.9000   358                    Cuts: 62    50052         
      0     2        4.9000   208                      4.9000    50052         
Elapsed time = 83.42 sec. (44614.19 ticks, tree = 0.01 MB, solutions = 0)
      1     3        4.9000   207                      4.9000    50053         
      2     4        4.9000   269                      4.9000    54995         
      3     3        9.8000   200                      4.9000    50053         
      4     5        4.9000   297                      4.9000    62380         
      5     4        4.9000   350                      4.9000    54518         
      6     6        9.8000   305                      4.9000    61050         
      7     5        4.9000   389                      4.9000    64014         
      9     7        4.9000   168                      4.9000    66494         
     10     8    infeasible                            4.9000    89380         
     12     7        4.9000   332                      4.9000    66827         
Elapsed time = 137.81 sec. (77218.48 ticks, tree = 0.01 MB, solutions = 0)
     14     8        4.9000   392                      4.9000    72043         
     17     9    infeasible                            4.9000   104463         
     20    11    infeasible                            4.9000   110456         
     24    10    infeasible                            4.9000   133344         
     31    14    infeasible                            4.9000   140868         
     36    15        9.8000   389                      4.9000   140055         
     43    10       14.7000   470                      4.9000   105458         
     48    14    infeasible                            4.9000   189570         
     51    14    infeasible                            4.9000   193353         
     55    13    infeasible                            4.9000   196473         
Elapsed time = 194.19 sec. (89356.60 ticks, tree = 0.01 MB, solutions = 0)
     58    15      992.8200   147                      4.9000   141949         
     63    16        9.8000   471                      4.9000   200088         
     78    15      992.8200    95                      4.9000   183440         
     85    15    infeasible                            4.9000   251504         
     91    14       16.2100   389                      4.9000   257248         
    101    13    infeasible                            4.9000   273903         
    120    18        4.9000   331                      4.9000   280322         
    124    17        4.9000   345                      4.9000   285178         
    128    19        4.9000   187                      4.9000   287848         
    135    14    infeasible                            4.9000   285933         
Elapsed time = 250.66 sec. (101398.24 ticks, tree = 0.01 MB, solutions = 0)
    137    15       27.5200   264                      4.9000   297955         
    142    16       16.2100   475                      4.9000   304973         
    146    17    infeasible                            4.9000   306696         
    153    16    infeasible                            4.9000   311132         
    155    16       16.2100   399                      4.9000   308279         
    162    19    infeasible                            4.9000   330724         
    170    16        4.9000   280                      4.9000   285099         
    174    18       16.2100   368                      4.9000   339970         
    181    20        4.9000   360                      4.9000   320352         
*   182    10      integral     0     1438.3305        4.9000   159489   99.66%
    189    18    infeasible           1438.3305        4.9000   342469   99.66%
Elapsed time = 303.76 sec. (113378.92 ticks, tree = 0.01 MB, solutions = 1)
    192    19    infeasible           1438.3305        4.9000   343200   99.66%
    196    20       16.2100   431     1438.3305        4.9000   341901   99.66%
    203    18       16.2100   420     1438.3305        4.9000   310042   99.66%
    209    18       16.2100   337     1438.3305        4.9000   357320   99.66%
    216    17        cutoff           1438.3305        4.9000   358369   99.66%
    223    18        4.9000   398     1438.3305        4.9000   380819   99.66%
    228    18        4.9000   454     1438.3305        4.9000   381771   99.66%
    230    19        4.9000   395     1438.3305        4.9000   382057   99.66%
    234    19        4.9000   406     1438.3305        4.9000   383267   99.66%
    235    20        4.9000   393     1438.3305        4.9000   383363   99.66%
Elapsed time = 356.91 sec. (124919.31 ticks, tree = 0.01 MB, solutions = 1)
    245    16    infeasible           1438.3305        4.9000   395150   99.66%
    251    18        cutoff           1438.3305        4.9000   372509   99.66%
    259    16    infeasible           1438.3305        4.9000   417784   99.66%
    267    16    infeasible           1438.3305        4.9000   392928   99.66%
    276    18       16.2100   364     1438.3305        4.9000   410769   99.66%
    281    19       16.2100   371     1438.3305        4.9000   418749   99.66%
    284    19    infeasible           1438.3305        4.9000   419996   99.66%
    287    14       34.8000   321     1438.3305        4.9000   427060   99.66%
    291    15       14.7000   391     1438.3305        4.9000   438165   99.66%
    302    19       34.8000   330     1438.3305        4.9000   441218   99.66%
Elapsed time = 413.67 sec. (136616.59 ticks, tree = 0.03 MB, solutions = 1)
    316    21       34.8000   403     1438.3305        4.9000   442510   99.66%
    334    17       24.5000   465     1438.3305        4.9000   441236   99.66%
    349    20       16.2100   434     1438.3305        4.9000   424413   99.66%
    380    25       16.2100   367     1438.3305        4.9000   461631   99.66%
    404    18       46.2900   355     1438.3305        4.9000   446567   99.66%
    457    24    infeasible           1438.3305        4.9000   464609   99.66%
    507    39        4.9000   364     1438.3305        4.9000   487246   99.66%
    534    40    infeasible           1438.3305        4.9000   480070   99.66%
    574    50       14.7000   383     1438.3305        4.9000   506086   99.66%
    594    38       14.7000   446     1438.3305        4.9000   495999   99.66%
Elapsed time = 469.73 sec. (146588.31 ticks, tree = 0.30 MB, solutions = 1)
    613    38    infeasible           1438.3305        4.9000   496422   99.66%
    634    53    infeasible           1438.3305        4.9000   508376   99.66%
    666    46    infeasible           1438.3305        4.9000   512620   99.66%
    687    43    infeasible           1438.3305        4.9000   547338   99.66%
    706    50    infeasible           1438.3305        4.9000   524812   99.66%
    722    39        cutoff           1438.3305        4.9000   558414   99.66%
    742    23    infeasible           1438.3305        4.9000   576028   99.66%
    751    49       16.2100   416     1438.3305        4.9000   525250   99.66%
    757    50    infeasible           1438.3305        4.9000   526520   99.66%
    762    15       14.7000   387     1438.3305        4.9000   438166   99.66%
Elapsed time = 521.31 sec. (158180.96 ticks, tree = 0.03 MB, solutions = 2)
    765     9    infeasible           1438.3305        4.9000   606248   99.66%
    768     9        cutoff           1438.3305        4.9000   607181   99.66%
    769    24        9.8000   407     1438.3305        4.9000   447314   99.66%
    772    11        9.8000   412     1438.3305        4.9000   612437   99.66%
    775    11    infeasible           1438.3305        4.9000   612933   99.66%
    778    11    infeasible           1438.3305        4.9000   614617   99.66%
    781    12        9.8000   351     1438.3305        4.9000   613706   99.66%
    783    12        9.8000   316     1438.3305        4.9000   614329   99.66%
    784    12        9.8000   370     1438.3305        4.9000   615295   99.66%
    787    13        9.8000   271     1438.3305        4.9000   614441   99.66%
Elapsed time = 614.91 sec. (179512.02 ticks, tree = 0.01 MB, solutions = 2)
    790     8        cutoff           1438.3305        4.9000   626298   99.66%
    792     8        4.9000   438     1438.3305        4.9000   628081   99.66%
    794     8        4.9000   200     1438.3305        4.9000   630809   99.66%
    796     6    infeasible           1438.3305        4.9000   632020   99.66%
    797    10        4.9000   322     1438.3305        4.9000   631684   99.66%
    800     8    infeasible           1438.3305        4.9000   637010   99.66%
    803    10        9.8000   271     1438.3305        4.9000   636933   99.66%
    805    10        4.9000   370     1438.3305        4.9000   638334   99.66%
    808    13        9.8000   360     1438.3305        4.9000   637645   99.66%
    830    10        4.9000   395     1438.3305        4.9000   635752   99.66%
Elapsed time = 702.23 sec. (199830.69 ticks, tree = 0.01 MB, solutions = 2)
    874    16    infeasible           1438.3305        4.9000   657700   99.66%
    888    22        9.8000   316     1438.3305        4.9000   658955   99.66%
    982    19    infeasible           1438.3305        4.9000   668885   99.66%
   1092    24    infeasible           1438.3305        4.9000   672680   99.66%
   1159    19    infeasible           1438.3305        4.9000   702189   99.66%
   1182    20        cutoff           1438.3305        4.9000   731828   99.66%
   1193    25    infeasible           1438.3305        4.9000   733581   99.66%
   1202    25        4.9000   259     1438.3305        4.9000   733893   99.66%
   1262    23       27.5200   346     1438.3305        4.9000   751381   99.66%
   1315    15    infeasible           1438.3305        4.9000   748912   99.66%
Elapsed time = 896.13 sec. (239906.04 ticks, tree = 0.01 MB, solutions = 2)
   1372    16        4.9000   295     1438.3305        4.9000   766415   99.66%
   1384    27        4.9000   418     1438.3305        4.9000   773881   99.66%
   1405    27       38.8300   257     1438.3305        4.9000   806809   99.66%
   1419    31    infeasible           1438.3305        4.9000   811021   99.66%
   1425    10        4.9000   390     1438.3305        4.9000   812517   99.66%
   1510    17    infeasible           1438.3305        4.9000   826464   99.66%
   1536    24    infeasible           1438.3305        4.9000   827288   99.66%
   1552    10    infeasible           1438.3305        4.9000   845824   99.66%
*  1561     8      integral     0     1429.6100        4.9000   743127   99.66%
   1561     8        cutoff           1429.6100        4.9000   743127   99.66%
   1562    14        4.9000   319     1429.6100        4.9000   837344   99.66%
Elapsed time = 1110.94 sec. (291423.51 ticks, tree = 0.01 MB, solutions = 3)
   1579    13    infeasible           1429.6100        4.9000   857648   99.66%
   1593    11        4.9000   430     1429.6100        4.9000   862016   99.66%
   1594    12        4.9000   422     1429.6100        4.9000   862017   99.66%
   1600    16    infeasible           1429.6100        4.9000   281208   99.66%
   1601    16    infeasible           1429.6100        4.9000   306896   99.66%
   1602    18    infeasible           1429.6100        4.9000   330999   99.66%
   1603    17    infeasible           1429.6100        4.9000   681982   99.66%

Clique cuts applied:  30
Implied bound cuts applied:  106
Zero-half cuts applied:  15
Cone linearizations applied:  84

Root node processing (before b&c):
  Real time             =   80.70 sec. (43920.21 ticks)
Parallel b&c, 16 threads:
  Real time             = 8035.88 sec. (2048605.06 ticks)
  Sync time (average)   = 6620.76 sec.
  Wait time (average)   =    0.22 sec.
                          ------------
Total (root+branch&cut) = 8116.58 sec. (2092525.27 ticks)
